p cnf 55 90                 
1 27 0
2 9 0
1 9 0
-2 -1 -9 0
9 -15 0
-1 10 0
-2 10 0
1 2 -10 0
10 11 0
3 11 0
-10 -3 -11 0
11 -15 0
-3 12 0
-10 12 0
3 10 -12 0
12 13 0
4 13 0
-12 -4 -13 0
13 -15 0
-4 14 0
-12 14 0
4 12 -14 0
14 -15 0
-9 -11 -13 -14 15 0
-15 -1 23 0
15 -5 23 0
-1 -5 23 0
-23 27 0
2 28 0
-15 -2 24 0
15 -6 24 0
-2 -6 24 0
-24 28 0
3 29 0
-15 -3 25 0
15 -7 25 0
-3 -7 25 0
-25 29 0
4 30 0
-15 -4 26 0
15 -8 26 0
-4 -8 26 0
-26 30 0
-27 -28 -29 -30 31 0
-31 -32 0
15 -32 0
-6 -5 -16 0
16 -22 0
-5 17 0
-6 17 0
5 6 -17 0
-17 -7 -18 0
18 -22 0
-7 19 0
-17 19 0
7 17 -19 0
-19 -8 -20 0
20 -22 0
8 19 -21 0
21 -22 0
22 -32 0
-1 2 -33 0
33 -39 0
-1 -2 34 0
1 2 34 0
-2 2 34 0
-5 6 -35 0
-34 35 -36 0
36 -39 0
39 -54 0
-2 3 -40 0
40 -46 0
-2 -3 41 0
2 3 41 0
-3 3 41 0
-6 7 -42 0
-41 42 -43 0
43 -46 0
46 -54 0
-3 4 -47 0
47 -53 0
-3 -4 48 0
3 4 48 0
-4 4 48 0
-7 8 -49 0
-48 49 -50 0
50 -53 0
53 -54 0
32 0
54 0
